p edge 800 1920
e 1 365
e 1 366
e 1 433
e 1 434
e 1 537
e 1 538
e 1 541
e 1 542
e 2 367
e 2 368
e 2 435
e 2 436
e 2 539
e 2 540
e 2 543
e 2 544
e 3 545
e 3 546
e 3 325
e 3 262
e 3 358
e 3 329
e 3 330
e 3 357
e 3 569
e 3 742
e 3 741
e 3 442
e 3 441
e 3 261
e 3 570
e 3 326
e 4 264
e 4 572
e 4 547
e 4 360
e 4 263
e 4 327
e 4 328
e 4 331
e 4 332
e 4 744
e 4 571
e 4 743
e 4 548
e 4 359
e 4 444
e 4 443
e 5 229
e 5 230
e 5 397
e 5 269
e 5 398
e 5 270
e 5 634
e 5 633
e 5 430
e 5 429
e 6 636
e 6 231
e 6 232
e 6 432
e 6 399
e 6 400
e 6 271
e 6 431
e 6 635
e 6 272
e 7 705
e 7 706
e 7 581
e 7 582
e 7 557
e 7 461
e 7 462
e 7 558
e 7 569
e 7 245
e 7 246
e 7 345
e 7 346
e 7 571
e 8 707
e 8 572
e 8 570
e 8 583
e 8 584
e 8 463
e 8 464
e 8 708
e 8 559
e 8 247
e 8 248
e 8 560
e 8 347
e 8 348
e 9 193
e 9 194
e 9 553
e 9 554
e 9 473
e 9 474
e 10 195
e 10 196
e 10 555
e 10 556
e 10 475
e 10 476
e 11 529
e 11 797
e 11 530
e 11 553
e 11 585
e 11 555
e 11 173
e 11 174
e 11 497
e 11 498
e 11 586
e 11 786
e 11 798
e 11 785
e 12 588
e 12 554
e 12 587
e 12 556
e 12 531
e 12 175
e 12 500
e 12 499
e 12 532
e 12 788
e 12 787
e 12 176
e 12 799
e 12 800
e 13 641
e 13 642
e 13 754
e 13 169
e 13 170
e 13 717
e 13 718
e 13 753
e 13 617
e 13 618
e 14 643
e 14 172
e 14 171
e 14 620
e 14 719
e 14 720
e 14 755
e 14 644
e 14 756
e 14 619
e 15 741
e 15 743
e 15 713
e 15 714
e 15 525
e 15 526
e 15 721
e 15 722
e 15 213
e 15 214
e 16 742
e 16 744
e 16 715
e 16 716
e 16 527
e 16 528
e 16 723
e 16 724
e 16 215
e 16 216
e 17 289
e 17 290
e 17 197
e 17 198
e 17 738
e 17 605
e 17 606
e 17 737
e 17 661
e 17 662
e 17 762
e 17 761
e 17 757
e 17 445
e 17 446
e 17 758
e 18 291
e 18 292
e 18 764
e 18 759
e 18 199
e 18 200
e 18 760
e 18 739
e 18 740
e 18 607
e 18 663
e 18 664
e 18 763
e 18 608
e 18 447
e 18 448
e 19 385
e 19 386
e 19 237
e 19 238
e 19 309
e 19 310
e 19 505
e 19 506
e 19 253
e 19 254
e 20 387
e 20 388
e 20 239
e 20 240
e 20 311
e 20 312
e 20 507
e 20 508
e 20 255
e 20 256
e 21 641
e 21 643
e 21 765
e 21 562
e 21 265
e 21 266
e 21 589
e 21 590
e 21 766
e 21 561
e 21 393
e 21 394
e 21 637
e 21 638
e 22 642
e 22 396
e 22 267
e 22 268
e 22 591
e 22 592
e 22 563
e 22 564
e 22 644
e 22 767
e 22 768
e 22 395
e 22 639
e 22 640
e 23 385
e 23 387
e 23 261
e 23 774
e 23 263
e 23 397
e 23 399
e 23 773
e 23 161
e 23 162
e 23 429
e 23 431
e 23 305
e 23 306
e 23 563
e 23 561
e 23 613
e 23 614
e 23 745
e 23 746
e 23 749
e 23 750
e 24 386
e 24 388
e 24 262
e 24 775
e 24 264
e 24 398
e 24 400
e 24 564
e 24 163
e 24 164
e 24 776
e 24 430
e 24 432
e 24 562
e 24 307
e 24 308
e 24 615
e 24 616
e 24 747
e 24 748
e 24 751
e 24 752
e 25 269
e 25 271
e 25 273
e 25 274
e 25 533
e 25 534
e 25 789
e 25 733
e 25 734
e 25 790
e 26 791
e 26 792
e 26 270
e 26 272
e 26 275
e 26 276
e 26 535
e 26 536
e 26 735
e 26 736
e 27 481
e 27 482
e 27 333
e 27 334
e 27 305
e 27 307
e 27 181
e 27 182
e 27 701
e 27 702
e 28 483
e 28 484
e 28 335
e 28 336
e 28 306
e 28 308
e 28 183
e 28 184
e 28 703
e 28 704
e 29 421
e 29 422
e 29 557
e 29 559
e 29 473
e 29 475
e 29 541
e 29 543
e 30 423
e 30 424
e 30 558
e 30 560
e 30 474
e 30 476
e 30 542
e 30 544
e 31 321
e 31 322
e 31 547
e 31 729
e 31 545
e 31 441
e 31 730
e 31 443
e 32 546
e 32 323
e 32 324
e 32 732
e 32 548
e 32 442
e 32 731
e 32 444
e 33 301
e 33 302
e 33 601
e 33 602
e 33 281
e 33 282
e 33 733
e 33 735
e 34 734
e 34 284
e 34 303
e 34 304
e 34 283
e 34 604
e 34 603
e 34 736
e 35 621
e 35 365
e 35 205
e 35 206
e 35 367
e 35 622
e 35 241
e 35 242
e 36 624
e 36 366
e 36 207
e 36 368
e 36 243
e 36 244
e 36 623
e 36 208
e 37 605
e 37 285
e 37 333
e 37 335
e 37 318
e 37 757
e 37 759
e 37 761
e 37 763
e 37 317
e 37 286
e 37 607
e 38 764
e 38 334
e 38 336
e 38 758
e 38 287
e 38 760
e 38 762
e 38 608
e 38 288
e 38 606
e 38 319
e 38 320
e 39 321
e 39 417
e 39 323
e 39 449
e 39 418
e 39 465
e 39 466
e 39 450
e 39 277
e 39 278
e 39 437
e 39 438
e 40 322
e 40 419
e 40 324
e 40 439
e 40 468
e 40 440
e 40 451
e 40 452
e 40 467
e 40 420
e 40 279
e 40 280
e 41 625
e 41 669
e 41 613
e 41 615
e 41 201
e 41 202
e 41 781
e 41 755
e 41 670
e 41 273
e 41 626
e 41 275
e 41 782
e 41 753
e 41 381
e 41 382
e 42 628
e 42 614
e 42 616
e 42 754
e 42 203
e 42 204
e 42 783
e 42 784
e 42 274
e 42 627
e 42 276
e 42 671
e 42 756
e 42 672
e 42 383
e 42 384
e 43 529
e 43 569
e 43 531
e 43 572
e 44 530
e 44 571
e 44 532
e 44 570
e 45 641
e 45 657
e 45 707
e 45 644
e 45 739
e 45 497
e 45 658
e 45 499
e 45 469
e 45 470
e 45 281
e 45 565
e 45 283
e 45 705
e 45 737
e 45 566
e 46 642
e 46 643
e 46 708
e 46 567
e 46 706
e 46 738
e 46 568
e 46 498
e 46 659
e 46 500
e 46 660
e 46 471
e 46 472
e 46 282
e 46 740
e 46 284
e 47 777
e 47 778
e 47 277
e 47 406
e 47 279
e 47 573
e 47 574
e 47 465
e 47 594
e 47 467
e 47 345
e 47 347
e 47 477
e 47 478
e 47 721
e 47 723
e 47 369
e 47 370
e 47 757
e 47 760
e 47 593
e 47 405
e 48 779
e 48 780
e 48 278
e 48 407
e 48 408
e 48 372
e 48 575
e 48 576
e 48 280
e 48 722
e 48 595
e 48 596
e 48 724
e 48 346
e 48 348
e 48 479
e 48 480
e 48 466
e 48 371
e 48 468
e 48 758
e 48 759
e 49 577
e 49 578
e 49 669
e 49 557
e 49 173
e 49 175
e 49 560
e 49 593
e 49 595
e 49 693
e 49 694
e 49 791
e 49 505
e 49 789
e 49 507
e 49 541
e 49 671
e 49 544
e 50 670
e 50 579
e 50 580
e 50 792
e 50 174
e 50 559
e 50 176
e 50 594
e 50 558
e 50 596
e 50 790
e 50 695
e 50 696
e 50 506
e 50 508
e 50 542
e 50 543
e 50 672
e 51 637
e 51 553
e 51 297
e 51 298
e 51 331
e 51 556
e 51 273
e 51 329
e 51 276
e 51 639
e 51 285
e 51 287
e 52 332
e 52 330
e 52 299
e 52 300
e 52 638
e 52 555
e 52 274
e 52 275
e 52 554
e 52 640
e 52 286
e 52 288
e 53 229
e 53 231
e 53 465
e 53 468
e 53 189
e 53 190
e 54 230
e 54 232
e 54 466
e 54 467
e 54 191
e 54 192
e 55 673
e 55 674
e 55 613
e 55 646
e 55 616
e 55 645
e 55 277
e 55 280
e 55 377
e 55 378
e 56 675
e 56 676
e 56 614
e 56 615
e 56 648
e 56 647
e 56 278
e 56 279
e 56 379
e 56 380
e 57 769
e 57 770
e 57 389
e 57 390
e 57 565
e 57 177
e 57 178
e 57 341
e 57 342
e 57 567
e 57 185
e 57 186
e 58 771
e 58 772
e 58 391
e 58 392
e 58 568
e 58 179
e 58 180
e 58 566
e 58 343
e 58 344
e 58 187
e 58 188
e 59 329
e 59 653
e 59 485
e 59 486
e 59 201
e 59 234
e 59 203
e 59 332
e 59 301
e 59 654
e 59 303
e 59 721
e 59 233
e 59 724
e 59 490
e 59 489
e 59 189
e 59 191
e 60 491
e 60 492
e 60 236
e 60 487
e 60 488
e 60 202
e 60 235
e 60 204
e 60 302
e 60 655
e 60 304
e 60 722
e 60 723
e 60 330
e 60 656
e 60 331
e 60 190
e 60 192
e 61 289
e 61 291
e 61 773
e 61 775
e 61 685
e 61 653
e 61 686
e 61 655
e 61 253
e 61 255
e 62 290
e 62 292
e 62 774
e 62 776
e 62 654
e 62 687
e 62 656
e 62 688
e 62 254
e 62 256
e 63 549
e 63 550
e 63 781
e 63 649
e 63 650
e 63 749
e 63 751
e 63 783
e 63 413
e 63 414
e 64 782
e 64 551
e 64 552
e 64 651
e 64 652
e 64 750
e 64 752
e 64 784
e 64 415
e 64 416
e 65 689
e 65 657
e 65 690
e 65 659
e 65 537
e 65 539
e 66 658
e 66 691
e 66 660
e 66 692
e 66 538
e 66 540
e 67 709
e 67 710
e 67 169
e 67 621
e 67 171
e 67 525
e 67 527
e 67 561
e 67 649
e 67 564
e 67 245
e 67 623
e 67 247
e 67 651
e 68 652
e 68 711
e 68 712
e 68 650
e 68 170
e 68 172
e 68 526
e 68 528
e 68 562
e 68 563
e 68 246
e 68 248
e 68 624
e 68 622
e 69 417
e 69 401
e 69 409
e 69 265
e 69 267
e 69 713
e 69 419
e 69 177
e 69 402
e 69 179
e 69 410
e 69 217
e 69 218
e 69 715
e 70 418
e 70 412
e 70 716
e 70 266
e 70 268
e 70 404
e 70 420
e 70 178
e 70 403
e 70 180
e 70 714
e 70 219
e 70 220
e 70 411
e 71 193
e 71 353
e 71 195
e 71 517
e 71 518
e 71 354
e 71 457
e 71 458
e 71 747
e 71 777
e 71 177
e 71 745
e 71 180
e 71 185
e 71 187
e 71 779
e 72 194
e 72 355
e 72 196
e 72 748
e 72 519
e 72 520
e 72 780
e 72 746
e 72 459
e 72 460
e 72 178
e 72 179
e 72 356
e 72 778
e 72 186
e 72 188
e 73 609
e 73 610
e 73 725
e 73 233
e 73 235
e 73 716
e 73 713
e 73 533
e 73 374
e 73 535
e 73 373
e 73 573
e 73 575
e 73 726
e 74 611
e 74 376
e 74 727
e 74 715
e 74 234
e 74 714
e 74 236
e 74 728
e 74 612
e 74 534
e 74 375
e 74 536
e 74 574
e 74 576
e 75 521
e 75 522
e 75 629
e 75 630
e 76 523
e 76 524
e 76 631
e 76 632
e 77 677
e 77 678
e 77 621
e 77 624
e 77 729
e 77 501
e 77 502
e 77 663
e 77 345
e 77 661
e 77 731
e 77 348
e 77 349
e 77 350
e 78 679
e 78 680
e 78 730
e 78 664
e 78 622
e 78 623
e 78 662
e 78 503
e 78 504
e 78 346
e 78 347
e 78 732
e 78 351
e 78 352
e 79 517
e 79 519
e 79 301
e 79 304
e 79 181
e 79 183
e 79 601
e 79 603
e 79 573
e 79 576
e 80 518
e 80 520
e 80 302
e 80 303
e 80 182
e 80 184
e 80 602
e 80 604
e 80 574
e 80 575
e 81 257
e 81 258
e 81 421
e 81 166
e 81 423
e 81 776
e 81 521
e 81 523
e 81 583
e 81 627
e 81 679
e 81 433
e 81 581
e 81 435
e 81 677
e 81 773
e 81 165
e 81 625
e 82 524
e 82 628
e 82 259
e 82 260
e 82 422
e 82 167
e 82 424
e 82 522
e 82 584
e 82 168
e 82 680
e 82 434
e 82 775
e 82 436
e 82 774
e 82 678
e 82 626
e 82 582
e 83 289
e 83 292
e 83 505
e 83 437
e 83 439
e 83 377
e 83 379
e 83 508
e 84 290
e 84 291
e 84 506
e 84 438
e 84 440
e 84 378
e 84 507
e 84 380
e 85 293
e 85 294
e 85 477
e 85 525
e 85 528
e 85 377
e 85 380
e 85 221
e 85 222
e 85 479
e 86 295
e 86 296
e 86 526
e 86 527
e 86 378
e 86 379
e 86 480
e 86 478
e 86 223
e 86 224
e 87 293
e 87 165
e 87 295
e 87 167
e 88 294
e 88 296
e 88 166
e 88 168
e 89 785
e 89 357
e 89 327
e 89 359
e 89 497
e 89 787
e 89 500
e 89 217
e 89 325
e 89 219
e 89 413
e 89 415
e 90 358
e 90 360
e 90 328
e 90 498
e 90 499
e 90 788
e 90 416
e 90 218
e 90 220
e 90 786
e 90 414
e 90 326
e 91 513
e 91 514
e 91 617
e 91 682
e 91 619
e 91 681
e 91 501
e 91 503
e 91 249
e 91 250
e 92 515
e 92 516
e 92 684
e 92 618
e 92 683
e 92 620
e 92 502
e 92 504
e 92 251
e 92 252
e 93 213
e 93 215
e 94 214
e 94 216
e 95 353
e 95 355
e 95 685
e 95 393
e 95 589
e 95 395
e 95 748
e 95 493
e 95 494
e 95 591
e 95 745
e 95 245
e 95 687
e 95 407
e 95 248
e 95 405
e 96 354
e 96 356
e 96 686
e 96 394
e 96 747
e 96 396
e 96 590
e 96 495
e 96 496
e 96 246
e 96 247
e 96 408
e 96 746
e 96 592
e 96 688
e 96 406
e 97 297
e 97 299
e 97 453
e 97 454
e 98 298
e 98 300
e 98 455
e 98 456
e 99 597
e 99 598
e 99 375
e 99 249
e 99 373
e 99 251
e 99 669
e 99 672
e 100 376
e 100 374
e 100 599
e 100 600
e 100 250
e 100 252
e 100 670
e 100 671
e 101 225
e 101 226
e 101 579
e 101 717
e 101 537
e 101 361
e 101 362
e 101 653
e 101 689
e 101 656
e 101 337
e 101 338
e 101 691
e 101 719
e 101 313
e 101 314
e 101 540
e 101 577
e 102 578
e 102 227
e 102 228
e 102 580
e 102 363
e 102 364
e 102 654
e 102 655
e 102 718
e 102 690
e 102 339
e 102 340
e 102 692
e 102 538
e 102 315
e 102 316
e 102 539
e 102 720
e 103 257
e 103 259
e 103 549
e 103 551
e 103 437
e 103 599
e 103 440
e 103 597
e 104 258
e 104 260
e 104 550
e 104 552
e 104 438
e 104 439
e 104 600
e 104 598
e 105 417
e 105 420
e 105 229
e 105 232
e 105 361
e 105 363
e 105 249
e 105 252
e 106 418
e 106 419
e 106 230
e 106 231
e 106 362
e 106 364
e 106 250
e 106 251
e 107 357
e 107 711
e 107 360
e 107 425
e 107 426
e 107 459
e 107 237
e 107 239
e 107 657
e 107 457
e 107 660
e 107 709
e 107 349
e 107 351
e 108 460
e 108 358
e 108 359
e 108 712
e 108 458
e 108 427
e 108 428
e 108 238
e 108 240
e 108 658
e 108 659
e 108 710
e 108 350
e 108 352
e 109 709
e 109 712
e 109 693
e 109 695
e 109 793
e 109 794
e 109 317
e 109 319
e 110 710
e 110 711
e 110 694
e 110 696
e 110 795
e 110 796
e 110 318
e 110 320
e 111 513
e 111 515
e 111 665
e 111 793
e 111 666
e 111 795
e 111 797
e 111 799
e 111 169
e 111 683
e 111 172
e 111 305
e 111 308
e 111 317
e 111 320
e 111 337
e 111 339
e 111 221
e 111 223
e 111 225
e 111 227
e 111 681
e 112 514
e 112 516
e 112 794
e 112 667
e 112 796
e 112 798
e 112 800
e 112 668
e 112 170
e 112 171
e 112 684
e 112 306
e 112 307
e 112 318
e 112 319
e 112 338
e 112 340
e 112 222
e 112 224
e 112 226
e 112 228
e 112 682
e 113 605
e 113 625
e 113 471
e 113 489
e 113 429
e 113 491
e 113 365
e 113 368
e 113 209
e 113 210
e 113 628
e 113 341
e 113 343
e 113 756
e 113 469
e 113 608
e 113 432
e 113 349
e 113 753
e 113 352
e 114 492
e 114 606
e 114 754
e 114 490
e 114 627
e 114 472
e 114 366
e 114 367
e 114 430
e 114 626
e 114 211
e 114 212
e 114 431
e 114 342
e 114 344
e 114 755
e 114 607
e 114 350
e 114 351
e 114 470
e 115 261
e 115 264
e 115 797
e 115 461
e 115 463
e 115 761
e 115 661
e 115 664
e 115 633
e 115 635
e 115 764
e 115 381
e 115 383
e 115 800
e 116 798
e 116 262
e 116 263
e 116 462
e 116 464
e 116 662
e 116 663
e 116 762
e 116 634
e 116 763
e 116 636
e 116 382
e 116 799
e 116 384
e 117 257
e 117 260
e 117 677
e 117 680
e 117 552
e 117 698
e 117 697
e 117 549
e 118 258
e 118 259
e 118 550
e 118 679
e 118 551
e 118 699
e 118 700
e 118 678
e 119 421
e 119 487
e 119 199
e 119 424
e 119 425
e 119 427
e 119 524
e 119 781
e 119 485
e 119 744
e 119 521
e 119 309
e 119 741
e 119 311
e 119 197
e 119 784
e 120 488
e 120 422
e 120 423
e 120 200
e 120 426
e 120 522
e 120 428
e 120 782
e 120 783
e 120 743
e 120 742
e 120 310
e 120 312
e 120 486
e 120 523
e 120 198
e 121 449
e 121 451
e 121 293
e 121 296
e 121 381
e 121 520
e 121 789
e 121 792
e 121 313
e 121 517
e 121 315
e 121 384
e 121 253
e 121 256
e 122 450
e 122 452
e 122 294
e 122 295
e 122 519
e 122 382
e 122 790
e 122 383
e 122 791
e 122 314
e 122 316
e 122 254
e 122 255
e 122 518
e 123 529
e 123 205
e 123 207
e 123 401
e 123 403
e 123 532
e 123 285
e 123 288
e 124 530
e 124 206
e 124 208
e 124 402
e 124 531
e 124 404
e 124 286
e 124 287
e 125 321
e 125 705
e 125 324
e 125 453
e 125 455
e 125 297
e 125 585
e 125 587
e 125 300
e 125 237
e 125 240
e 125 369
e 125 489
e 125 371
e 125 708
e 125 640
e 125 637
e 125 492
e 126 322
e 126 323
e 126 454
e 126 586
e 126 456
e 126 298
e 126 299
e 126 588
e 126 238
e 126 239
e 126 638
e 126 370
e 126 372
e 126 490
e 126 707
e 126 706
e 126 491
e 126 639
e 127 225
e 127 228
e 127 645
e 127 647
e 127 777
e 127 461
e 127 780
e 127 493
e 127 495
e 127 464
e 128 226
e 128 227
e 128 646
e 128 648
e 128 778
e 128 779
e 128 462
e 128 463
e 128 496
e 128 494
e 129 636
e 129 633
e 129 600
e 129 209
e 129 409
e 129 211
e 129 181
e 129 184
e 129 185
e 129 597
e 129 411
e 129 188
e 129 189
e 129 192
e 130 635
e 130 599
e 130 634
e 130 210
e 130 212
e 130 182
e 130 183
e 130 410
e 130 186
e 130 187
e 130 412
e 130 190
e 130 191
e 130 598
e 131 161
e 131 609
e 131 163
e 131 796
e 131 453
e 131 456
e 131 457
e 131 460
e 131 333
e 131 611
e 131 336
e 131 241
e 131 243
e 131 692
e 131 533
e 131 536
e 131 793
e 131 689
e 131 477
e 131 480
e 132 612
e 132 162
e 132 164
e 132 454
e 132 455
e 132 610
e 132 458
e 132 459
e 132 334
e 132 335
e 132 242
e 132 691
e 132 244
e 132 534
e 132 535
e 132 794
e 132 690
e 132 795
e 132 478
e 132 479
e 133 193
e 133 769
e 133 771
e 133 196
e 133 589
e 133 696
e 133 173
e 133 176
e 133 469
e 133 472
e 133 693
e 133 592
e 134 194
e 134 195
e 134 772
e 134 695
e 134 770
e 134 174
e 134 175
e 134 590
e 134 470
e 134 471
e 134 591
e 134 694
e 135 197
e 135 200
e 135 265
e 135 268
e 135 725
e 135 727
e 135 473
e 135 476
e 136 198
e 136 199
e 136 266
e 136 267
e 136 726
e 136 728
e 136 474
e 136 475
e 137 609
e 137 612
e 137 165
e 137 168
e 137 425
e 137 428
e 137 309
e 137 312
e 137 509
e 137 510
e 138 610
e 138 611
e 138 166
e 138 167
e 138 426
e 138 427
e 138 310
e 138 311
e 138 511
e 138 512
e 139 385
e 139 769
e 139 316
e 139 201
e 139 204
e 139 397
e 139 400
e 139 401
e 139 313
e 139 388
e 139 213
e 139 631
e 139 216
e 139 281
e 139 629
e 139 284
e 139 404
e 139 772
e 140 386
e 140 387
e 140 771
e 140 770
e 140 202
e 140 203
e 140 632
e 140 398
e 140 399
e 140 402
e 140 403
e 140 214
e 140 215
e 140 314
e 140 282
e 140 283
e 140 315
e 140 630
e 141 161
e 141 241
e 141 164
e 141 485
e 141 244
e 141 393
e 141 396
e 141 209
e 141 665
e 141 212
e 141 488
e 141 217
e 141 697
e 141 667
e 141 220
e 141 445
e 141 699
e 141 447
e 142 162
e 142 163
e 142 700
e 142 486
e 142 487
e 142 242
e 142 394
e 142 395
e 142 243
e 142 698
e 142 210
e 142 211
e 142 666
e 142 218
e 142 219
e 142 668
e 142 446
e 142 448
e 143 513
e 143 444
e 143 785
e 143 441
e 143 516
e 143 409
e 143 788
e 143 412
e 143 509
e 143 511
e 144 514
e 144 515
e 144 786
e 144 787
e 144 442
e 144 410
e 144 411
e 144 443
e 144 510
e 144 512
e 145 481
e 145 483
e 145 325
e 145 328
e 145 341
e 145 344
e 146 482
e 146 484
e 146 326
e 146 327
e 146 342
e 146 343
e 147 449
e 147 481
e 147 675
e 147 452
e 147 728
e 147 493
e 147 496
e 147 484
e 147 565
e 147 568
e 147 725
e 147 673
e 148 450
e 148 451
e 148 676
e 148 727
e 148 482
e 148 494
e 148 495
e 148 483
e 148 566
e 148 567
e 148 674
e 148 726
e 149 577
e 149 673
e 149 580
e 149 684
e 149 617
e 149 620
e 149 681
e 149 676
e 149 373
e 149 376
e 149 601
e 149 740
e 149 604
e 149 701
e 149 737
e 149 703
e 150 578
e 150 579
e 150 674
e 150 618
e 150 619
e 150 675
e 150 702
e 150 374
e 150 375
e 150 682
e 150 602
e 150 603
e 150 738
e 150 683
e 150 739
e 150 704
e 151 233
e 151 236
e 151 629
e 151 632
e 152 234
e 152 235
e 152 630
e 152 631
e 153 652
e 153 585
e 153 588
e 153 269
e 153 272
e 153 649
e 154 586
e 154 587
e 154 270
e 154 271
e 154 650
e 154 651
e 155 700
e 155 389
e 155 749
e 155 391
e 155 361
e 155 445
e 155 364
e 155 717
e 155 752
e 155 720
e 155 337
e 155 701
e 155 704
e 155 340
e 155 512
e 155 697
e 155 448
e 155 221
e 155 509
e 155 224
e 156 702
e 156 750
e 156 390
e 156 751
e 156 392
e 156 362
e 156 363
e 156 718
e 156 719
e 156 446
e 156 338
e 156 339
e 156 447
e 156 698
e 156 511
e 156 699
e 156 510
e 156 222
e 156 223
e 156 703
e 157 433
e 157 732
e 157 389
e 157 392
e 157 436
e 157 369
e 157 729
e 157 372
e 157 665
e 157 668
e 157 765
e 157 767
e 158 390
e 158 391
e 158 434
e 158 435
e 158 766
e 158 370
e 158 371
e 158 730
e 158 666
e 158 667
e 158 731
e 158 768
e 159 645
e 159 648
e 159 405
e 159 408
e 159 413
e 159 416
e 159 545
e 159 548
e 159 685
e 159 688
e 159 581
e 159 584
e 159 205
e 159 208
e 159 593
e 159 596
e 159 733
e 159 736
e 159 353
e 159 356
e 159 501
e 159 504
e 159 765
e 159 768
e 160 646
e 160 647
e 160 406
e 160 407
e 160 414
e 160 415
e 160 546
e 160 547
e 160 686
e 160 687
e 160 582
e 160 583
e 160 206
e 160 207
e 160 594
e 160 595
e 160 734
e 160 735
e 160 354
e 160 355
e 160 502
e 160 503
e 160 766
e 160 767